10
1 0 30
2 0 5
2 1 2
3 0 5
3 1 5
3 2 4
4 0 47
4 1 1
4 2 38
4 3 33
5 0 3
5 1 44
5 2 19
5 3 1
5 4 28
6 0 25
6 1 3
6 2 13
6 3 2
6 4 28
6 5 33
7 0 29
7 1 38
7 2 7
7 3 36
7 4 7
7 5 1
7 6 20
8 0 10
8 1 12
8 2 13
8 3 8
8 4 18
8 5 19
8 6 40
8 7 29
9 0 47
9 1 36
9 2 47
9 3 7
9 4 20
9 5 34
9 6 36
9 7 19
9 8 14
